(set-logic QF_LRA)
(declare-fun X0 () Real )
(declare-fun Y0 () Real )
(declare-fun X1 () Real )
(declare-fun Y1 () Real )
(declare-fun X2 () Real )
(declare-fun Y2 () Real )
(declare-fun X3 () Real )
(declare-fun Y3 () Real )
(declare-fun X4 () Real )
(declare-fun Y4 () Real )
(declare-fun X5 () Real )
(declare-fun Y5 () Real )
(declare-fun X6 () Real )
(declare-fun Y6 () Real )
(declare-fun X7 () Real )
(declare-fun Y7 () Real )
(declare-fun X8 () Real )
(declare-fun Y8 () Real )
(declare-fun X9 () Real )
(declare-fun Y9 () Real )
(declare-fun X10 () Real )
(declare-fun Y10 () Real )
(declare-fun X11 () Real )
(declare-fun Y11 () Real )
(declare-fun Z () Real )
(assert ( and  
( or ( <= ( + X0 11 ) X1 )  ( <= ( + X1 89 ) X0 )  ( <= ( + Y0 42 ) Y1 )  ( <= ( + Y1 65 ) Y0 )  )
( or ( <= ( + X0 11 ) X2 )  ( <= ( + X2 70 ) X0 )  ( <= ( + Y0 42 ) Y2 )  ( <= ( + Y2 84 ) Y0 )  )
( or ( <= ( + X0 11 ) X3 )  ( <= ( + X3 64 ) X0 )  ( <= ( + Y0 42 ) Y3 )  ( <= ( + Y3 58 ) Y0 )  )
( or ( <= ( + X0 11 ) X4 )  ( <= ( + X4 61 ) X0 )  ( <= ( + Y0 42 ) Y4 )  ( <= ( + Y4 81 ) Y0 )  )
( or ( <= ( + X0 11 ) X5 )  ( <= ( + X5 61 ) X0 )  ( <= ( + Y0 42 ) Y5 )  ( <= ( + Y5 83 ) Y0 )  )
( or ( <= ( + X0 11 ) X6 )  ( <= ( + X6 89 ) X0 )  ( <= ( + Y0 42 ) Y6 )  ( <= ( + Y6 33 ) Y0 )  )
( or ( <= ( + X0 11 ) X7 )  ( <= ( + X7 32 ) X0 )  ( <= ( + Y0 42 ) Y7 )  ( <= ( + Y7 33 ) Y0 )  )
( or ( <= ( + X0 11 ) X8 )  ( <= ( + X8 84 ) X0 )  ( <= ( + Y0 42 ) Y8 )  ( <= ( + Y8 60 ) Y0 )  )
( or ( <= ( + X0 11 ) X9 )  ( <= ( + X9 27 ) X0 )  ( <= ( + Y0 42 ) Y9 )  ( <= ( + Y9 4 ) Y0 )  )
( or ( <= ( + X0 11 ) X10 )  ( <= ( + X10 45 ) X0 )  ( <= ( + Y0 42 ) Y10 )  ( <= ( + Y10 14 ) Y0 )  )
( or ( <= ( + X0 11 ) X11 )  ( <= ( + X11 40 ) X0 )  ( <= ( + Y0 42 ) Y11 )  ( <= ( + Y11 36 ) Y0 )  )
( or ( <= ( + X1 89 ) X2 )  ( <= ( + X2 70 ) X1 )  ( <= ( + Y1 65 ) Y2 )  ( <= ( + Y2 84 ) Y1 )  )
( or ( <= ( + X1 89 ) X3 )  ( <= ( + X3 64 ) X1 )  ( <= ( + Y1 65 ) Y3 )  ( <= ( + Y3 58 ) Y1 )  )
( or ( <= ( + X1 89 ) X4 )  ( <= ( + X4 61 ) X1 )  ( <= ( + Y1 65 ) Y4 )  ( <= ( + Y4 81 ) Y1 )  )
( or ( <= ( + X1 89 ) X5 )  ( <= ( + X5 61 ) X1 )  ( <= ( + Y1 65 ) Y5 )  ( <= ( + Y5 83 ) Y1 )  )
( or ( <= ( + X1 89 ) X6 )  ( <= ( + X6 89 ) X1 )  ( <= ( + Y1 65 ) Y6 )  ( <= ( + Y6 33 ) Y1 )  )
( or ( <= ( + X1 89 ) X7 )  ( <= ( + X7 32 ) X1 )  ( <= ( + Y1 65 ) Y7 )  ( <= ( + Y7 33 ) Y1 )  )
( or ( <= ( + X1 89 ) X8 )  ( <= ( + X8 84 ) X1 )  ( <= ( + Y1 65 ) Y8 )  ( <= ( + Y8 60 ) Y1 )  )
( or ( <= ( + X1 89 ) X9 )  ( <= ( + X9 27 ) X1 )  ( <= ( + Y1 65 ) Y9 )  ( <= ( + Y9 4 ) Y1 )  )
( or ( <= ( + X1 89 ) X10 )  ( <= ( + X10 45 ) X1 )  ( <= ( + Y1 65 ) Y10 )  ( <= ( + Y10 14 ) Y1 )  )
( or ( <= ( + X1 89 ) X11 )  ( <= ( + X11 40 ) X1 )  ( <= ( + Y1 65 ) Y11 )  ( <= ( + Y11 36 ) Y1 )  )
( or ( <= ( + X2 70 ) X3 )  ( <= ( + X3 64 ) X2 )  ( <= ( + Y2 84 ) Y3 )  ( <= ( + Y3 58 ) Y2 )  )
( or ( <= ( + X2 70 ) X4 )  ( <= ( + X4 61 ) X2 )  ( <= ( + Y2 84 ) Y4 )  ( <= ( + Y4 81 ) Y2 )  )
( or ( <= ( + X2 70 ) X5 )  ( <= ( + X5 61 ) X2 )  ( <= ( + Y2 84 ) Y5 )  ( <= ( + Y5 83 ) Y2 )  )
( or ( <= ( + X2 70 ) X6 )  ( <= ( + X6 89 ) X2 )  ( <= ( + Y2 84 ) Y6 )  ( <= ( + Y6 33 ) Y2 )  )
( or ( <= ( + X2 70 ) X7 )  ( <= ( + X7 32 ) X2 )  ( <= ( + Y2 84 ) Y7 )  ( <= ( + Y7 33 ) Y2 )  )
( or ( <= ( + X2 70 ) X8 )  ( <= ( + X8 84 ) X2 )  ( <= ( + Y2 84 ) Y8 )  ( <= ( + Y8 60 ) Y2 )  )
( or ( <= ( + X2 70 ) X9 )  ( <= ( + X9 27 ) X2 )  ( <= ( + Y2 84 ) Y9 )  ( <= ( + Y9 4 ) Y2 )  )
( or ( <= ( + X2 70 ) X10 )  ( <= ( + X10 45 ) X2 )  ( <= ( + Y2 84 ) Y10 )  ( <= ( + Y10 14 ) Y2 )  )
( or ( <= ( + X2 70 ) X11 )  ( <= ( + X11 40 ) X2 )  ( <= ( + Y2 84 ) Y11 )  ( <= ( + Y11 36 ) Y2 )  )
( or ( <= ( + X3 64 ) X4 )  ( <= ( + X4 61 ) X3 )  ( <= ( + Y3 58 ) Y4 )  ( <= ( + Y4 81 ) Y3 )  )
( or ( <= ( + X3 64 ) X5 )  ( <= ( + X5 61 ) X3 )  ( <= ( + Y3 58 ) Y5 )  ( <= ( + Y5 83 ) Y3 )  )
( or ( <= ( + X3 64 ) X6 )  ( <= ( + X6 89 ) X3 )  ( <= ( + Y3 58 ) Y6 )  ( <= ( + Y6 33 ) Y3 )  )
( or ( <= ( + X3 64 ) X7 )  ( <= ( + X7 32 ) X3 )  ( <= ( + Y3 58 ) Y7 )  ( <= ( + Y7 33 ) Y3 )  )
( or ( <= ( + X3 64 ) X8 )  ( <= ( + X8 84 ) X3 )  ( <= ( + Y3 58 ) Y8 )  ( <= ( + Y8 60 ) Y3 )  )
( or ( <= ( + X3 64 ) X9 )  ( <= ( + X9 27 ) X3 )  ( <= ( + Y3 58 ) Y9 )  ( <= ( + Y9 4 ) Y3 )  )
( or ( <= ( + X3 64 ) X10 )  ( <= ( + X10 45 ) X3 )  ( <= ( + Y3 58 ) Y10 )  ( <= ( + Y10 14 ) Y3 )  )
( or ( <= ( + X3 64 ) X11 )  ( <= ( + X11 40 ) X3 )  ( <= ( + Y3 58 ) Y11 )  ( <= ( + Y11 36 ) Y3 )  )
( or ( <= ( + X4 61 ) X5 )  ( <= ( + X5 61 ) X4 )  ( <= ( + Y4 81 ) Y5 )  ( <= ( + Y5 83 ) Y4 )  )
( or ( <= ( + X4 61 ) X6 )  ( <= ( + X6 89 ) X4 )  ( <= ( + Y4 81 ) Y6 )  ( <= ( + Y6 33 ) Y4 )  )
( or ( <= ( + X4 61 ) X7 )  ( <= ( + X7 32 ) X4 )  ( <= ( + Y4 81 ) Y7 )  ( <= ( + Y7 33 ) Y4 )  )
( or ( <= ( + X4 61 ) X8 )  ( <= ( + X8 84 ) X4 )  ( <= ( + Y4 81 ) Y8 )  ( <= ( + Y8 60 ) Y4 )  )
( or ( <= ( + X4 61 ) X9 )  ( <= ( + X9 27 ) X4 )  ( <= ( + Y4 81 ) Y9 )  ( <= ( + Y9 4 ) Y4 )  )
( or ( <= ( + X4 61 ) X10 )  ( <= ( + X10 45 ) X4 )  ( <= ( + Y4 81 ) Y10 )  ( <= ( + Y10 14 ) Y4 )  )
( or ( <= ( + X4 61 ) X11 )  ( <= ( + X11 40 ) X4 )  ( <= ( + Y4 81 ) Y11 )  ( <= ( + Y11 36 ) Y4 )  )
( or ( <= ( + X5 61 ) X6 )  ( <= ( + X6 89 ) X5 )  ( <= ( + Y5 83 ) Y6 )  ( <= ( + Y6 33 ) Y5 )  )
( or ( <= ( + X5 61 ) X7 )  ( <= ( + X7 32 ) X5 )  ( <= ( + Y5 83 ) Y7 )  ( <= ( + Y7 33 ) Y5 )  )
( or ( <= ( + X5 61 ) X8 )  ( <= ( + X8 84 ) X5 )  ( <= ( + Y5 83 ) Y8 )  ( <= ( + Y8 60 ) Y5 )  )
( or ( <= ( + X5 61 ) X9 )  ( <= ( + X9 27 ) X5 )  ( <= ( + Y5 83 ) Y9 )  ( <= ( + Y9 4 ) Y5 )  )
( or ( <= ( + X5 61 ) X10 )  ( <= ( + X10 45 ) X5 )  ( <= ( + Y5 83 ) Y10 )  ( <= ( + Y10 14 ) Y5 )  )
( or ( <= ( + X5 61 ) X11 )  ( <= ( + X11 40 ) X5 )  ( <= ( + Y5 83 ) Y11 )  ( <= ( + Y11 36 ) Y5 )  )
( or ( <= ( + X6 89 ) X7 )  ( <= ( + X7 32 ) X6 )  ( <= ( + Y6 33 ) Y7 )  ( <= ( + Y7 33 ) Y6 )  )
( or ( <= ( + X6 89 ) X8 )  ( <= ( + X8 84 ) X6 )  ( <= ( + Y6 33 ) Y8 )  ( <= ( + Y8 60 ) Y6 )  )
( or ( <= ( + X6 89 ) X9 )  ( <= ( + X9 27 ) X6 )  ( <= ( + Y6 33 ) Y9 )  ( <= ( + Y9 4 ) Y6 )  )
( or ( <= ( + X6 89 ) X10 )  ( <= ( + X10 45 ) X6 )  ( <= ( + Y6 33 ) Y10 )  ( <= ( + Y10 14 ) Y6 )  )
( or ( <= ( + X6 89 ) X11 )  ( <= ( + X11 40 ) X6 )  ( <= ( + Y6 33 ) Y11 )  ( <= ( + Y11 36 ) Y6 )  )
( or ( <= ( + X7 32 ) X8 )  ( <= ( + X8 84 ) X7 )  ( <= ( + Y7 33 ) Y8 )  ( <= ( + Y8 60 ) Y7 )  )
( or ( <= ( + X7 32 ) X9 )  ( <= ( + X9 27 ) X7 )  ( <= ( + Y7 33 ) Y9 )  ( <= ( + Y9 4 ) Y7 )  )
( or ( <= ( + X7 32 ) X10 )  ( <= ( + X10 45 ) X7 )  ( <= ( + Y7 33 ) Y10 )  ( <= ( + Y10 14 ) Y7 )  )
( or ( <= ( + X7 32 ) X11 )  ( <= ( + X11 40 ) X7 )  ( <= ( + Y7 33 ) Y11 )  ( <= ( + Y11 36 ) Y7 )  )
( or ( <= ( + X8 84 ) X9 )  ( <= ( + X9 27 ) X8 )  ( <= ( + Y8 60 ) Y9 )  ( <= ( + Y9 4 ) Y8 )  )
( or ( <= ( + X8 84 ) X10 )  ( <= ( + X10 45 ) X8 )  ( <= ( + Y8 60 ) Y10 )  ( <= ( + Y10 14 ) Y8 )  )
( or ( <= ( + X8 84 ) X11 )  ( <= ( + X11 40 ) X8 )  ( <= ( + Y8 60 ) Y11 )  ( <= ( + Y11 36 ) Y8 )  )
( or ( <= ( + X9 27 ) X10 )  ( <= ( + X10 45 ) X9 )  ( <= ( + Y9 4 ) Y10 )  ( <= ( + Y10 14 ) Y9 )  )
( or ( <= ( + X9 27 ) X11 )  ( <= ( + X11 40 ) X9 )  ( <= ( + Y9 4 ) Y11 )  ( <= ( + Y11 36 ) Y9 )  )
( or ( <= ( + X10 45 ) X11 )  ( <= ( + X11 40 ) X10 )  ( <= ( + Y10 14 ) Y11 )  ( <= ( + Y11 36 ) Y10 )  )
( >= X0 0)
( <= ( + X0 11) Z)
( >= Y0 0)
( <= ( + Y0 42 ) 173)
( >= X1 0)
( <= ( + X1 89) Z)
( >= Y1 0)
( <= ( + Y1 65 ) 173)
( >= X2 0)
( <= ( + X2 70) Z)
( >= Y2 0)
( <= ( + Y2 84 ) 173)
( >= X3 0)
( <= ( + X3 64) Z)
( >= Y3 0)
( <= ( + Y3 58 ) 173)
( >= X4 0)
( <= ( + X4 61) Z)
( >= Y4 0)
( <= ( + Y4 81 ) 173)
( >= X5 0)
( <= ( + X5 61) Z)
( >= Y5 0)
( <= ( + Y5 83 ) 173)
( >= X6 0)
( <= ( + X6 89) Z)
( >= Y6 0)
( <= ( + Y6 33 ) 173)
( >= X7 0)
( <= ( + X7 32) Z)
( >= Y7 0)
( <= ( + Y7 33 ) 173)
( >= X8 0)
( <= ( + X8 84) Z)
( >= Y8 0)
( <= ( + Y8 60 ) 173)
( >= X9 0)
( <= ( + X9 27) Z)
( >= Y9 0)
( <= ( + Y9 4 ) 173)
( >= X10 0)
( <= ( + X10 45) Z)
( >= Y10 0)
( <= ( + Y10 14 ) 173)
( >= X11 0)
( <= ( + X11 40) Z)
( >= Y11 0)
( <= ( + Y11 36 ) 173)
) )
(minimize Z)
(check-sat)
